(set-logic QF_UFLIA)
(set-info :author pomrehn@informatik.uni-freiburg.de)
(set-info :category "crafted")
(set-info :status sat)
(set-info :simplyfied (or A B C))
(set-info :source "{ No subterm is redundant. }")
(set-option :strong-context-simplifier true)
(declare-fun A () Bool)
(declare-fun B () Bool)
(declare-fun C () Bool)
(simplify (or A B C))
(exit)